p cnf 7230 14
-72 -2065 0
72 1730 2064 0
72 -2063 0
-72 -1730 2061 0
-67 -1732 2059 0
-2064 2065 0
-2062 2063 0
-2060 2062 0
2060 -2061 0
2065 -2067 0
-1730 -2065 0
1730 -2063 0
2058 -2059 0
-2058 2059 0
